problems/Promedus_11/Promedus_11.gr
p tw 461 835
159 62
461 120
461 62
120 62
460 148
460 461
148 461
59 460
91 62
459 70
459 84
70 84
458 140
458 459
140 459
457 1
457 458
1 458
456 115
456 457
115 457
455 103
455 456
103 456
454 133
454 455
133 455
453 119
453 454
119 454
452 76
452 453
76 453
451 72
451 452
72 452
450 66
450 451
66 451
449 183
449 450
183 450
448 172
448 449
172 449
447 124
447 448
124 448
446 19
446 447
19 447
445 89
445 446
89 446
444 157
444 445
157 445
443 51
443 444
51 444
442 175
442 443
175 443
441 123
441 442
123 442
440 105
440 441
105 441
439 177
439 440
177 440
438 47
438 439
47 439
437 61
437 438
61 438
436 114
436 437
114 437
435 39
435 436
39 436
434 112
434 435
112 435
433 110
433 434
110 434
432 155
432 433
155 433
431 122
431 432
122 432
430 170
430 431
170 431
429 11
429 430
11 430
428 150
428 429
150 429
427 125
427 428
125 428
426 169
426 427
169 427
425 96
425 426
96 426
424 92
424 425
92 425
423 152
423 424
152 424
422 64
422 423
64 423
421 141
421 422
141 422
420 137
420 421
137 421
419 8
419 420
8 420
418 6
418 419
6 419
417 4
417 418
4 418
416 31
416 417
31 417
415 57
415 416
57 416
414 156
414 415
156 415
413 98
413 414
98 414
412 104
412 413
104 413
411 80
411 412
80 412
410 161
410 411
161 411
409 77
409 410
77 410
408 108
408 409
108 409
407 113
407 408
113 408
406 143
406 407
143 407
405 99
405 406
99 406
27 405
404 3
404 62
3 62
403 19
403 404
19 404
130 403
402 156
402 51
156 51
401 133
401 402
133 402
400 183
400 401
183 401
52 400
399 70
399 84
398 1
398 399
1 399
397 140
397 398
140 398
396 115
396 397
115 397
395 103
395 396
103 396
394 133
394 395
133 395
393 119
393 394
119 394
392 66
392 393
66 393
391 72
391 392
72 392
390 183
390 391
183 391
389 172
389 390
172 390
388 123
388 389
123 389
387 175
387 388
175 388
386 105
386 387
105 387
385 177
385 386
177 386
384 61
384 385
61 385
383 114
383 384
114 384
382 39
382 383
39 383
381 110
381 382
110 382
380 155
380 381
155 381
379 122
379 380
122 380
378 170
378 379
170 379
377 11
377 378
11 378
376 150
376 377
150 377
375 125
375 376
125 376
374 92
374 375
92 375
373 152
373 374
152 374
372 141
372 373
141 373
371 64
371 372
64 372
370 137
370 371
137 371
369 8
369 370
8 370
368 6
368 369
6 369
367 31
367 368
31 368
366 104
366 367
104 367
365 80
365 366
80 366
364 161
364 365
161 365
363 77
363 364
77 364
362 108
362 363
108 363
361 113
361 362
113 362
360 99
360 361
99 361
5 360
359 140
359 135
140 135
358 43
358 359
43 359
357 58
357 358
58 358
356 163
356 357
163 357
355 76
355 356
76 356
354 25
354 355
25 355
353 28
353 354
28 354
352 183
352 353
183 353
351 60
351 352
60 352
350 175
350 351
175 351
349 116
349 350
116 350
348 100
348 349
100 349
347 73
347 348
73 348
346 22
346 347
22 347
345 88
345 346
88 346
344 81
344 345
81 345
343 17
343 344
17 344
342 136
342 343
136 343
341 155
341 342
155 342
340 170
340 341
170 341
339 150
339 340
150 340
338 125
338 339
125 339
337 96
337 338
96 338
336 169
336 337
169 337
335 158
335 336
158 336
334 49
334 335
49 335
333 165
333 334
165 334
332 152
332 333
152 333
331 62
331 332
62 332
330 74
330 331
74 331
329 65
329 330
65 330
328 156
328 329
156 329
327 57
327 328
57 328
326 33
326 327
33 327
325 10
325 326
10 326
324 68
324 325
68 325
323 94
323 324
94 324
322 153
322 323
153 323
321 69
321 322
69 322
320 162
320 321
162 321
319 127
319 320
127 320
318 24
318 319
24 319
317 46
317 318
46 318
316 133
316 317
133 317
315 71
315 316
71 316
314 181
314 315
181 315
313 55
313 314
55 314
312 48
312 313
48 313
311 72
311 312
72 312
310 29
310 311
29 311
309 172
309 310
172 310
308 89
308 309
89 309
307 101
307 308
101 308
306 166
306 307
166 307
305 51
305 306
51 306
304 53
304 305
53 305
303 105
303 304
105 304
302 47
302 303
47 303
301 7
301 302
7 302
300 90
300 301
90 301
299 40
299 300
40 300
298 39
298 299
39 299
297 176
297 298
176 298
296 149
296 297
149 297
295 144
295 296
144 296
294 121
294 295
121 295
293 14
293 294
14 294
292 37
292 293
37 293
291 3
291 292
3 292
290 122
290 291
122 291
289 35
289 290
35 290
288 93
288 289
93 289
287 45
287 288
45 288
286 126
286 287
126 287
285 13
285 286
13 286
284 63
284 285
63 285
283 79
283 284
79 284
282 146
282 283
146 283
281 168
281 282
168 282
280 137
280 281
137 281
279 56
279 280
56 280
278 6
278 279
6 279
277 109
277 278
109 278
276 42
276 277
42 277
275 36
275 276
36 276
274 107
274 275
107 275
273 80
273 274
80 274
272 77
272 273
77 273
271 174
271 272
174 272
270 67
270 271
67 271
269 143
269 270
143 270
268 118
268 269
118 269
267 84
267 268
84 268
266 87
266 267
87 267
265 70
265 266
70 266
264 34
264 265
34 265
263 1
263 264
1 264
262 115
262 263
115 263
261 173
261 262
173 262
260 41
260 261
41 261
259 23
259 260
23 260
258 119
258 259
119 259
257 171
257 258
171 258
256 142
256 257
142 257
255 178
255 256
178 256
254 19
254 255
19 255
253 157
253 254
157 254
252 177
252 253
177 253
251 106
251 252
106 252
250 61
250 251
61 251
249 134
249 250
134 250
248 82
248 249
82 249
247 160
247 248
160 248
246 132
246 247
132 247
245 164
245 246
164 246
244 11
244 245
11 245
243 44
243 244
44 244
242 78
242 243
78 243
241 128
241 242
128 242
240 179
240 241
179 241
239 111
239 240
111 240
238 21
238 239
21 239
237 85
237 238
85 238
236 147
236 237
147 237
235 64
235 236
64 236
234 102
234 235
102 235
233 131
233 234
131 234
232 117
232 233
117 233
231 98
231 232
98 232
230 95
230 231
95 231
229 104
229 230
104 230
228 83
228 229
83 229
227 50
227 228
50 228
226 129
226 227
129 227
225 161
225 226
161 226
224 139
224 225
139 225
223 75
223 224
75 224
222 151
222 223
151 223
221 154
221 222
154 222
220 86
220 221
86 221
219 103
219 220
103 220
218 185
218 219
185 219
217 138
217 218
138 218
216 2
216 217
2 217
215 15
215 216
15 216
214 20
214 215
20 215
213 18
213 214
18 214
212 66
212 213
66 213
211 124
211 212
124 212
210 167
210 211
167 211
209 123
209 210
123 210
208 12
208 209
12 209
207 114
207 208
114 208
206 180
206 207
180 207
205 145
205 206
145 206
204 112
204 205
112 205
203 110
203 204
110 204
202 97
202 203
97 203
201 182
201 202
182 202
200 92
200 201
92 201
199 54
199 200
54 200
198 32
198 199
32 199
197 30
197 198
30 198
196 26
196 197
26 197
195 141
195 196
141 196
194 9
194 195
9 195
193 8
193 194
8 194
192 4
192 193
4 193
191 31
191 192
31 192
190 16
190 191
16 191
189 108
189 190
108 190
188 113
188 189
113 189
187 38
187 188
38 188
186 99
186 187
99 187
184 186
