problems/Promedus_11/Promedus_11.td
c read Graph
c width = 204
c time = 321 ms
c width = 23
c time = 573 ms
c width = 21
c time = 800 ms
c width = 20
c time = 1418 ms
c width = 19
c time = 4204 ms
c width = 18
c time = 6502 ms
c width = 17
c time = 6548 ms
c width = 16
c time = 10571 ms
c width = 15
c time = 24305 ms
c width = 14
c time = 41198 ms
c width = 13
c time = 74656 ms
c width = 13
c time = 299761 ms
s td 398 14 461
b 1 62 159
b 2 59 460
b 3 148 460 461
b 4 62 120 461
b 5 62 91
b 6 130 403
b 7 5 360
b 8 184 186
b 9 27 405
b 10 52 400
b 11 99 113 188 189
b 12 108 189 190 191
b 13 8 193 194 195
b 14 141 195 196 200
b 15 92 200 201 203
b 16 112 204 205 207
b 17 114 207 208 209
b 18 123 209 210 211
b 19 66 212 213 219
b 20 103 219 220 225
b 21 161 225 226 229
b 22 104 229 230 231
b 23 98 231 232 235
b 24 64 235 236 244
b 25 11 244 245 250
b 26 61 250 251 252
b 27 19 254 255 258
b 28 119 258 259 262
b 29 1 263 264 265
b 30 70 265 266 267
b 31 84 267 268 269
b 32 143 269 270 272
b 33 80 273 274 278
b 34 6 278 279 280
b 35 137 280 281 290
b 36 3 291 292 298
b 37 39 298 299 302
b 38 105 303 304 305
b 39 51 305 306 308
b 40 172 309 310 311
b 41 72 311 312 316
b 42 133 316 317 327
b 43 156 328 329 331
b 44 152 332 333 336
b 45 155 341 342 350
b 46 175 350 351 352
b 47 183 352 353 355
b 48 76 140 355 356
b 49 99 113 361 362
b 50 133 183 401 402
b 51 3 19 62 404
b 52 99 143 406 407
b 53 70 84 265 267 269
b 54 1 70 84 115 262 265 269
b 55 1 115 262 263 265
b 56 1 70 84 115 140 262 269 396 456
b 57 103 119 133 140 262 269 355 396 452 456
b 58 66 103 119 133 262 269 355 392 396 452
b 59 66 103 119 133 212 225 262 269 355 392 452
b 60 66 119 133 212 225 258 262 269 355 392 452
b 61 66 72 133 172 183 212 225 258 269 355 392 448 452
b 62 66 72 172 183 448 450 452
b 63 172 183 448 449 450
b 64 66 72 450 451 452
b 65 72 133 172 183 211 212 225 258 269 355 392 447 448
b 66 72 133 172 183 211 225 258 269 355 389 392 447
b 67 72 133 172 183 211 225 258 269 309 327 355 389 447
b 68 72 133 172 309 316 327
b 69 72 172 309 311 316
b 70 133 183 211 225 258 269 309 327 355 389 402 447
b 71 175 183 211 225 258 269 309 327 350 355 389 402 447
b 72 19 175 211 225 254 258 269 309 327 350 389 402 447
b 73 19 175 211 225 254 269 309 327 350 389 402 446 447
b 74 19 175 211 225 254 269 308 309 327 350 389 402 445 446
b 75 89 308 309 445 446
b 76 19 175 211 225 253 254 269 308 327 350 389 402 444 445
b 77 157 253 254 444 445
b 78 19 51 175 211 225 253 269 308 327 350 389 402 443 444
b 79 19 51 175 211 225 253 269 305 308 327 350 389 402 443
b 80 19 51 156 175 211 225 253 269 305 327 350 389 402 443
b 81 19 123 156 175 211 225 253 269 305 327 350 387 389 443
b 82 19 123 156 175 211 225 253 269 305 327 350 387 441 443
b 83 19 123 156 209 211 225 253 269 305 327 350 387 441
b 84 19 105 156 209 225 253 269 303 305 327 350 387 441
b 85 19 105 156 177 209 225 252 253 269 303 327 350 387 441
b 86 19 105 156 177 209 225 252 269 303 327 350 385 387 441
b 87 19 105 156 177 209 225 252 269 303 327 350 385 439 441
b 88 105 177 439 440 441
b 89 3 19 57 156 209 225 252 269 303 327 332 350 385 439
b 90 3 19 57 62 156 327 332
b 91 57 62 156 327 331 332
b 92 57 156 327 328 331
b 93 3 57 156 209 225 252 269 302 303 332 350 385 438 439
b 94 47 302 303 438 439
b 95 3 57 156 209 225 252 269 291 298 302 332 350 385 438
b 96 39 57 156 209 225 252 269 291 298 302 332 350 385 438
b 97 39 57 156 209 225 252 269 291 332 350 385 415 416 438
b 98 39 156 209 225 252 269 291 332 350 385 414 415 416 438
b 99 39 61 209 225 250 252 269 291 332 350 385 414 416 438
b 100 39 61 209 225 250 269 291 332 350 384 385 414 416 438
b 101 39 61 209 225 250 269 291 332 350 384 414 416 437 438
b 102 39 114 207 209 225 250 269 291 332 350 384 414 416 437
b 103 39 114 207 225 250 269 291 332 350 383 384 414 416 437
b 104 39 114 207 225 250 269 291 332 350 383 414 416 436 437
b 105 39 207 225 250 269 291 332 350 382 383 414 416 436 437
b 106 39 207 225 250 269 291 332 350 382 414 416 435 436 437
b 107 112 204 207 225 250 269 291 332 350 382 414 416 435 437
b 108 112 204 225 250 269 291 332 350 382 414 416 434 435 437
b 109 110 203 204 225 250 269 291 332 350 382 414 416 434 437
b 110 110 203 225 250 269 291 332 350 381 382 414 416 434 437
b 111 110 203 225 250 269 291 332 350 381 414 416 433 434 437
b 112 92 200 203 225 250 269 291 332 350 381 414 416 433 437
b 113 92 155 200 225 250 269 291 332 341 350 381 414 416 433
b 114 92 155 200 225 250 269 291 332 341 380 381 414 416 433
b 115 92 155 200 225 250 269 291 332 341 380 414 416 432 433
b 116 92 122 200 225 250 269 290 291 332 341 380 414 416 432
b 117 92 122 200 225 250 269 290 332 341 379 380 414 416 432
b 118 92 122 200 225 250 269 290 332 341 379 414 416 431 432
b 119 92 170 200 225 250 269 290 332 340 341 379 414 416 431
b 120 92 170 200 225 250 269 290 332 340 378 379 414 416 431
b 121 92 170 200 225 250 269 290 332 340 378 414 416 430 431
b 122 11 92 200 225 244 250 269 290 332 340 378 414 416 430
b 123 11 92 200 225 244 269 290 332 340 377 378 414 416 430
b 124 11 92 200 225 244 269 290 332 340 377 414 416 429 430
b 125 92 200 225 244 269 290 332 340 373 377 414 416 423 429
b 126 161 200 225 229 244 269 290 340 373 377 414 416 423 429
b 127 161 200 229 244 269 290 340 373 377 414 416 423 429
b 128 104 161 200 229 231 244 269 290 373 377 414 416 423 429
b 129 104 161 200 231 244 269 290 373 377 414 416 423 429
b 130 64 104 161 200 231 244 269 290 373 412 414 416 423 429
b 131 64 104 231 244 412 414 416 423 429
b 132 64 104 231 244 412 413 414
b 133 64 231 235 244 413 414
b 134 98 231 235 413 414
b 135 92 332 338 340 373 375 377 423 427 429
b 136 125 150 338 340 375 377 427 429
b 137 125 150 375 376 377
b 138 125 150 338 339 340
b 139 125 150 427 428 429
b 140 92 152 332 338 373 375 423 427
b 141 92 152 373 374 375
b 142 92 152 332 338 423 425 427
b 143 92 152 423 424 425
b 144 152 332 336 338 425 427
b 145 336 337 338 425 426 427
b 146 96 337 338 425 426
b 147 169 336 337 426 427
b 148 105 177 385 386 387
b 149 123 175 441 442 443
b 150 123 175 387 388 389
b 151 175 183 350 352 355
b 152 72 172 183 389 390 392
b 153 72 183 390 391 392
b 154 124 211 212 447 448
b 155 66 103 212 219 225
b 156 66 103 119 133 392 394 396
b 157 103 133 394 395 396
b 158 66 119 392 393 394
b 159 103 119 133 140 355 452 454 456
b 160 119 140 355 452 453 454
b 161 76 140 355 452 453
b 162 103 133 454 455 456
b 163 1 70 84 115 140 396 398
b 164 115 140 396 397 398
b 165 1 70 84 398 399
b 166 1 70 84 115 140 456 458
b 167 70 84 140 458 459
b 168 1 115 456 457 458
b 169 4 192 193 417 418
b 170 6 192 193 278 280 368 369 417 418 419
b 171 31 191 192 193 278 280 367 368 369 416 417 418 419
b 172 108 189 191 192 193 278 280 367 368 369 416 417 418 419
b 173 99 108 113 189 193 278 280 367 368 369 416 417 418 419
b 174 80 99 108 113 193 273 278 280 367 369 416 417 418 419
b 175 77 80 99 108 113 193 272 273 280 367 369 416 418 419
b 176 77 80 99 108 113 143 193 269 272 280 367 369 416 419
b 177 77 80 99 108 113 143 193 269 280 367 369 408 416 419
b 178 77 80 99 108 113 193 269 280 362 367 369 408 416 419
b 179 77 80 108 193 269 280 362 363 367 369 408 409 416 419
b 180 77 80 193 269 280 363 364 367 369 408 409 410 416 419
b 181 80 137 193 269 280 290 364 367 369 408 409 410 416 419
b 182 80 137 161 193 269 290 364 365 367 369 409 410 416 419
b 183 80 137 161 193 269 290 365 366 367 369 409 410 416 419
b 184 80 104 137 161 193 269 290 366 367 369 409 410 416 419
b 185 80 104 137 161 193 269 290 369 409 410 411 412 416 419
b 186 8 104 137 161 193 269 290 369 370 410 411 412 416 419
b 187 8 104 137 161 193 269 290 370 371 410 411 412 416 419
b 188 8 104 137 161 193 269 290 371 410 411 412 416 419 421
b 189 8 104 141 161 193 200 269 290 371 411 412 416 419 421
b 190 64 104 141 161 200 269 290 371 372 411 412 416 419 421
b 191 64 104 141 161 200 269 290 372 373 411 412 416 419 421
b 192 64 104 141 161 200 269 290 373 411 412 416 419 421 422
b 193 64 104 161 200 269 290 373 412 416 419 421 422 423 429
b 194 8 137 419 420 421
b 195 8 141 193 195 200
b 196 99 113 143 407 408
b 197 25 354 355
b 198 353 354 355
b 199 28 353 354
b 200 60 351 352
b 201 116 349 350
b 202 342 349 350
b 203 100 348 349
b 204 342 348 349
b 205 73 347 348
b 206 342 347 348
b 207 22 346 347
b 208 342 346 347
b 209 88 345 346
b 210 342 345 346
b 211 81 344 345
b 212 342 344 345
b 213 17 343 344
b 214 342 343 344
b 215 136 342 343
b 216 158 335 336
b 217 333 335 336
b 218 49 334 335
b 219 333 334 335
b 220 165 333 334
b 221 74 330 331
b 222 329 330 331
b 223 65 329 330
b 224 33 326 327
b 225 317 326 327
b 226 10 325 326
b 227 317 325 326
b 228 68 324 325
b 229 317 324 325
b 230 94 323 324
b 231 317 323 324
b 232 153 322 323
b 233 317 322 323
b 234 69 321 322
b 235 317 321 322
b 236 162 320 321
b 237 317 320 321
b 238 127 319 320
b 239 317 319 320
b 240 24 318 319
b 241 317 318 319
b 242 46 317 318
b 243 71 315 316
b 244 312 315 316
b 245 181 314 315
b 246 312 314 315
b 247 55 313 314
b 248 312 313 314
b 249 48 312 313
b 250 29 310 311
b 251 101 307 308
b 252 306 307 308
b 253 166 306 307
b 254 53 304 305
b 255 7 301 302
b 256 299 301 302
b 257 90 300 301
b 258 299 300 301
b 259 40 299 300
b 260 176 297 298
b 261 292 297 298
b 262 149 296 297
b 263 292 296 297
b 264 144 295 296
b 265 292 295 296
b 266 121 294 295
b 267 292 294 295
b 268 14 293 294
b 269 292 293 294
b 270 37 292 293
b 271 35 289 290
b 272 281 289 290
b 273 93 288 289
b 274 281 288 289
b 275 45 287 288
b 276 281 287 288
b 277 126 286 287
b 278 281 286 287
b 279 13 285 286
b 280 281 285 286
b 281 63 284 285
b 282 281 284 285
b 283 79 283 284
b 284 281 283 284
b 285 146 282 283
b 286 281 282 283
b 287 168 281 282
b 288 56 279 280
b 289 109 277 278
b 290 274 277 278
b 291 42 276 277
b 292 274 276 277
b 293 36 275 276
b 294 274 275 276
b 295 107 274 275
b 296 174 271 272
b 297 270 271 272
b 298 67 270 271
b 299 118 268 269
b 300 87 266 267
b 301 34 264 265
b 302 173 261 262
b 303 259 261 262
b 304 41 260 261
b 305 259 260 261
b 306 23 259 260
b 307 171 257 258
b 308 255 257 258
b 309 142 256 257
b 310 255 256 257
b 311 178 255 256
b 312 106 251 252
b 313 134 249 250
b 314 245 249 250
b 315 82 248 249
b 316 245 248 249
b 317 160 247 248
b 318 245 247 248
b 319 132 246 247
b 320 245 246 247
b 321 164 245 246
b 322 44 243 244
b 323 236 243 244
b 324 78 242 243
b 325 236 242 243
b 326 128 241 242
b 327 236 241 242
b 328 179 240 241
b 329 236 240 241
b 330 111 239 240
b 331 236 239 240
b 332 21 238 239
b 333 236 238 239
b 334 85 237 238
b 335 236 237 238
b 336 147 236 237
b 337 102 234 235
b 338 232 234 235
b 339 131 233 234
b 340 232 233 234
b 341 117 232 233
b 342 95 230 231
b 343 83 228 229
b 344 226 228 229
b 345 50 227 228
b 346 226 227 228
b 347 129 226 227
b 348 139 224 225
b 349 220 224 225
b 350 75 223 224
b 351 220 223 224
b 352 151 222 223
b 353 220 222 223
b 354 154 221 222
b 355 220 221 222
b 356 86 220 221
b 357 185 218 219
b 358 213 218 219
b 359 138 217 218
b 360 213 217 218
b 361 2 216 217
b 362 213 216 217
b 363 15 215 216
b 364 213 215 216
b 365 20 214 215
b 366 213 214 215
b 367 18 213 214
b 368 167 210 211
b 369 12 208 209
b 370 180 206 207
b 371 205 206 207
b 372 145 205 206
b 373 97 202 203
b 374 201 202 203
b 375 182 201 202
b 376 54 199 200
b 377 196 199 200
b 378 32 198 199
b 379 196 198 199
b 380 30 197 198
b 381 196 197 198
b 382 26 196 197
b 383 9 194 195
b 384 16 190 191
b 385 183 400 401
b 386 43 358 359
b 387 140 358 359
b 388 135 140 359
b 389 58 357 358
b 390 140 357 358
b 391 140 356 357
b 392 163 356 357
b 393 99 405 406
b 394 99 360 361
b 395 38 187 188
b 396 99 187 188
b 397 99 186 187
b 398 19 403 404
1 4
1 5
1 51
2 3
3 4
6 398
7 394
8 397
9 393
10 385
11 396
11 173
12 384
12 172
13 383
13 195
14 377
14 195
15 374
15 112
16 371
16 107
17 369
17 102
18 368
18 83
19 358
19 155
20 349
20 155
21 344
21 126
22 342
22 128
23 338
23 134
24 323
24 133
25 314
25 122
26 312
26 99
27 308
27 72
28 303
28 60
29 301
29 55
30 300
30 53
31 299
31 53
32 297
32 176
33 290
33 174
34 288
34 170
35 272
35 181
36 261
36 95
37 256
37 96
38 254
38 84
39 252
39 79
40 250
40 69
41 244
41 69
42 225
42 68
43 222
43 92
44 217
44 144
45 202
45 113
46 200
46 151
47 198
47 151
48 391
48 161
49 394
49 178
50 385
50 70
51 398
51 90
52 393
52 196
53 54
54 56
54 55
56 166
56 163
56 57
57 159
57 58
58 156
58 59
59 155
59 60
60 61
61 65
61 62
62 63
62 64
65 154
65 66
66 152
66 67
67 70
67 68
68 69
70 71
71 151
71 72
72 73
73 74
74 76
74 75
76 78
76 77
78 79
79 80
80 81
81 150
81 82
82 149
82 83
83 84
84 85
85 86
86 148
86 87
87 89
87 88
89 93
89 90
90 91
91 92
93 95
93 94
95 96
96 97
97 98
98 99
99 100
100 101
101 102
102 103
103 104
104 105
105 106
106 107
107 108
108 109
109 110
110 111
111 112
112 113
113 114
114 115
115 116
116 117
117 118
118 119
119 120
120 121
121 122
122 123
123 124
124 125
125 135
125 126
126 128
126 127
128 130
128 129
130 193
130 132
130 131
132 133
133 134
135 136
135 140
136 138
136 139
136 137
140 141
140 142
142 144
142 143
144 145
145 146
145 147
152 153
156 157
156 158
159 160
159 162
160 161
163 165
163 164
166 168
166 167
169 170
170 171
171 172
172 173
173 174
174 175
175 176
176 177
177 196
177 178
178 179
179 180
180 181
181 182
182 183
183 184
184 185
185 186
186 187
187 188
188 194
188 189
189 195
189 190
190 191
191 192
192 193
197 198
198 199
201 202
202 204
203 204
204 206
205 206
206 208
207 208
208 210
209 210
210 212
211 212
212 214
213 214
214 215
216 217
217 219
218 219
219 220
221 222
222 223
224 225
225 227
226 227
227 229
228 229
229 231
230 231
231 233
232 233
233 235
234 235
235 237
236 237
237 239
238 239
239 241
240 241
241 242
243 244
244 246
245 246
246 248
247 248
248 249
251 252
252 253
255 256
256 258
257 258
258 259
260 261
261 263
262 263
263 265
264 265
265 267
266 267
267 269
268 269
269 270
271 272
272 274
273 274
274 276
275 276
276 278
277 278
278 280
279 280
280 282
281 282
282 284
283 284
284 286
285 286
286 287
289 290
290 292
291 292
292 294
293 294
294 295
296 297
297 298
302 303
303 305
304 305
305 306
307 308
308 310
309 310
310 311
313 314
314 316
315 316
316 318
317 318
318 320
319 320
320 321
322 323
323 325
324 325
325 327
326 327
327 329
328 329
329 331
330 331
331 333
332 333
333 335
334 335
335 336
337 338
338 340
339 340
340 341
343 344
344 346
345 346
346 347
348 349
349 351
350 351
351 353
352 353
353 355
354 355
355 356
357 358
358 360
359 360
360 362
361 362
362 364
363 364
364 366
365 366
366 367
370 371
371 372
373 374
374 375
376 377
377 379
378 379
379 381
380 381
381 382
386 387
387 390
387 388
389 390
390 391
391 392
395 396
396 397
